p cnf 116 438
1 2 3 4 5 6 7 8 9 10 11 0
25 26 27 28 29 30 31 32 33 34 35 0
36 37 38 39 40 41 42 43 44 45 46 0
47 48 49 50 51 52 53 54 55 56 57 58 0
93 94 95 96 97 98 99 100 101 102 103 104 105 0
-1 -12 0
-1 -25 0
-1 -36 0
-1 -47 0
-1 -59 0
-1 -72 0
-1 -93 0
-1 -106 0
-12 -25 0
-12 -36 0
-12 -47 0
-12 -59 0
-12 -72 0
-12 -93 0
-12 -106 0
-25 -36 0
-25 -47 0
-25 -59 0
-25 -72 0
-25 -93 0
-25 -106 0
-36 -47 0
-36 -59 0
-36 -72 0
-36 -93 0
-36 -106 0
-47 -59 0
-47 -72 0
-47 -93 0
-47 -106 0
-59 -72 0
-59 -93 0
-59 -106 0
-72 -93 0
-72 -106 0
-93 -106 0
-2 -13 0
-2 -26 0
-2 -37 0
-2 -60 0
-2 -81 0
-2 -94 0
-2 -107 0
-13 -26 0
-13 -37 0
-13 -60 0
-13 -81 0
-13 -94 0
-13 -107 0
-26 -37 0
-26 -60 0
-26 -81 0
-26 -94 0
-26 -107 0
-37 -60 0
-37 -81 0
-37 -94 0
-37 -107 0
-60 -81 0
-60 -94 0
-60 -107 0
-81 -94 0
-81 -107 0
-94 -107 0
-14 -27 0
-14 -48 0
-14 -61 0
-14 -73 0
-14 -82 0
-14 -95 0
-14 -108 0
-27 -48 0
-27 -61 0
-27 -73 0
-27 -82 0
-27 -95 0
-27 -108 0
-48 -61 0
-48 -73 0
-48 -82 0
-48 -95 0
-48 -108 0
-61 -73 0
-61 -82 0
-61 -95 0
-61 -108 0
-73 -82 0
-73 -95 0
-73 -108 0
-82 -95 0
-82 -108 0
-95 -108 0
-3 -15 0
-3 -28 0
-3 -49 0
-3 -74 0
-3 -83 0
-3 -96 0
-15 -28 0
-15 -49 0
-15 -74 0
-15 -83 0
-15 -96 0
-28 -49 0
-28 -74 0
-28 -83 0
-28 -96 0
-49 -74 0
-49 -83 0
-49 -96 0
-74 -83 0
-74 -96 0
-83 -96 0
-4 -16 0
-4 -29 0
-4 -38 0
-4 -50 0
-4 -62 0
-4 -75 0
-4 -84 0
-4 -97 0
-4 -109 0
-16 -29 0
-16 -38 0
-16 -50 0
-16 -62 0
-16 -75 0
-16 -84 0
-16 -97 0
-16 -109 0
-29 -38 0
-29 -50 0
-29 -62 0
-29 -75 0
-29 -84 0
-29 -97 0
-29 -109 0
-38 -50 0
-38 -62 0
-38 -75 0
-38 -84 0
-38 -97 0
-38 -109 0
-50 -62 0
-50 -75 0
-50 -84 0
-50 -97 0
-50 -109 0
-62 -75 0
-62 -84 0
-62 -97 0
-62 -109 0
-75 -84 0
-75 -97 0
-75 -109 0
-84 -97 0
-84 -109 0
-97 -109 0
-5 -17 0
-5 -30 0
-5 -39 0
-5 -51 0
-5 -63 0
-5 -76 0
-5 -85 0
-5 -98 0
-5 -110 0
-17 -30 0
-17 -39 0
-17 -51 0
-17 -63 0
-17 -76 0
-17 -85 0
-17 -98 0
-17 -110 0
-30 -39 0
-30 -51 0
-30 -63 0
-30 -76 0
-30 -85 0
-30 -98 0
-30 -110 0
-39 -51 0
-39 -63 0
-39 -76 0
-39 -85 0
-39 -98 0
-39 -110 0
-51 -63 0
-51 -76 0
-51 -85 0
-51 -98 0
-51 -110 0
-63 -76 0
-63 -85 0
-63 -98 0
-63 -110 0
-76 -85 0
-76 -98 0
-76 -110 0
-85 -98 0
-85 -110 0
-98 -110 0
-6 -18 0
-6 -31 0
-6 -40 0
-6 -64 0
-6 -77 0
-6 -86 0
-6 -99 0
-6 -111 0
-18 -31 0
-18 -40 0
-18 -64 0
-18 -77 0
-18 -86 0
-18 -99 0
-18 -111 0
-31 -40 0
-31 -64 0
-31 -77 0
-31 -86 0
-31 -99 0
-31 -111 0
-40 -64 0
-40 -77 0
-40 -86 0
-40 -99 0
-40 -111 0
-64 -77 0
-64 -86 0
-64 -99 0
-64 -111 0
-77 -86 0
-77 -99 0
-77 -111 0
-86 -99 0
-86 -111 0
-99 -111 0
-7 -19 0
-7 -52 0
-7 -65 0
-7 -87 0
-7 -100 0
-19 -52 0
-19 -65 0
-19 -87 0
-19 -100 0
-52 -65 0
-52 -87 0
-52 -100 0
-65 -87 0
-65 -100 0
-87 -100 0
-8 -20 0
-8 -41 0
-8 -53 0
-8 -66 0
-8 -88 0
-8 -101 0
-8 -112 0
-20 -41 0
-20 -53 0
-20 -66 0
-20 -88 0
-20 -101 0
-20 -112 0
-41 -53 0
-41 -66 0
-41 -88 0
-41 -101 0
-41 -112 0
-53 -66 0
-53 -88 0
-53 -101 0
-53 -112 0
-66 -88 0
-66 -101 0
-66 -112 0
-88 -101 0
-88 -112 0
-101 -112 0
-21 -32 0
-21 -42 0
-21 -54 0
-21 -67 0
-21 -89 0
-21 -113 0
-32 -42 0
-32 -54 0
-32 -67 0
-32 -89 0
-32 -113 0
-42 -54 0
-42 -67 0
-42 -89 0
-42 -113 0
-54 -67 0
-54 -89 0
-54 -113 0
-67 -89 0
-67 -113 0
-89 -113 0
-33 -43 0
-33 -55 0
-33 -68 0
-33 -78 0
-33 -90 0
-33 -102 0
-33 -114 0
-43 -55 0
-43 -68 0
-43 -78 0
-43 -90 0
-43 -102 0
-43 -114 0
-55 -68 0
-55 -78 0
-55 -90 0
-55 -102 0
-55 -114 0
-68 -78 0
-68 -90 0
-68 -102 0
-68 -114 0
-78 -90 0
-78 -102 0
-78 -114 0
-90 -102 0
-90 -114 0
-102 -114 0
-9 -22 0
-9 -34 0
-9 -44 0
-9 -56 0
-9 -69 0
-9 -91 0
-9 -103 0
-9 -115 0
-22 -34 0
-22 -44 0
-22 -56 0
-22 -69 0
-22 -91 0
-22 -103 0
-22 -115 0
-34 -44 0
-34 -56 0
-34 -69 0
-34 -91 0
-34 -103 0
-34 -115 0
-44 -56 0
-44 -69 0
-44 -91 0
-44 -103 0
-44 -115 0
-56 -69 0
-56 -91 0
-56 -103 0
-56 -115 0
-69 -91 0
-69 -103 0
-69 -115 0
-91 -103 0
-91 -115 0
-103 -115 0
-10 -23 0
-10 -35 0
-10 -45 0
-10 -57 0
-10 -70 0
-10 -79 0
-10 -92 0
-10 -104 0
-10 -116 0
-23 -35 0
-23 -45 0
-23 -57 0
-23 -70 0
-23 -79 0
-23 -92 0
-23 -104 0
-23 -116 0
-35 -45 0
-35 -57 0
-35 -70 0
-35 -79 0
-35 -92 0
-35 -104 0
-35 -116 0
-45 -57 0
-45 -70 0
-45 -79 0
-45 -92 0
-45 -104 0
-45 -116 0
-57 -70 0
-57 -79 0
-57 -92 0
-57 -104 0
-57 -116 0
-70 -79 0
-70 -92 0
-70 -104 0
-70 -116 0
-79 -92 0
-79 -104 0
-79 -116 0
-92 -104 0
-92 -116 0
-104 -116 0
-11 -24 0
-11 -46 0
-11 -58 0
-11 -71 0
-11 -80 0
-11 -105 0
-24 -46 0
-24 -58 0
-24 -71 0
-24 -80 0
-24 -105 0
-46 -58 0
-46 -71 0
-46 -80 0
-46 -105 0
-58 -71 0
-58 -80 0
-58 -105 0
-71 -80 0
-71 -105 0
-80 -105 0
